(set-logic ALL)
(set-option :produce-models true)
(declare-sort BoundSet 0)
(declare-sort UnboundSet 0)
(set-option :finite-model-find true)
(declare-fun HasIPhone (BoundSet) Bool)
(declare-fun Is12YearsOld (BoundSet) Bool)
(declare-fun BuyIPhone (BoundSet BoundSet) Bool)
(assert (not (=> (exists ((b BoundSet)) (HasIPhone b)) (exists ((a BoundSet)) (exists ((e BoundSet)) (exists ((d BoundSet)) (and (Is12YearsOld e) (BuyIPhone d a))))))))
(check-sat)
(get-model)